(set-logic QF_BV)
(declare-fun _substvar_111_ () (_ BitVec 47))
(declare-fun _substvar_162_ () Bool)
(declare-fun _substvar_82_ () (_ BitVec 47))
(declare-fun _substvar_130_ () (_ BitVec 47))
(declare-fun _substvar_120_ () (_ BitVec 47))
(declare-fun _substvar_241_ () (_ BitVec 1))
(declare-fun _substvar_128_ () (_ BitVec 47))
(assert (and true true true true true true true true true true true true true true true true true true true true true true true true true true true true true true true true true true true true true true true true true true true true true true true true true true true true true true true true true true true (ite _substvar_162_ (= _substvar_130_ (_ bv0 47)) (= _substvar_130_ (concat (_ bv0 46) _substvar_241_))) (= _substvar_111_ (concat ((_ extract 45 0) _substvar_130_) (bvxor ((_ extract 46 46) _substvar_130_) ((_ extract 41 41) _substvar_130_)))) (= _substvar_120_ (concat ((_ extract 45 0) _substvar_111_) (_ bv0 1))) (= _substvar_128_ (concat (_ bv0 46) (bvxor ((_ extract 46 46) _substvar_120_) (_ bv0 1)))) (= _substvar_82_ (concat ((_ extract 45 0) _substvar_128_) (_ bv0 1))) true true true (= (= (_ bv0 47) _substvar_82_) false)))
(check-sat)
(exit)
